Version identifier: 20.1.0.0 | 2020-11-10 | 9bedb6d68
CPXPARAM_Threads                                 1
CPXPARAM_TimeLimit                               7200
CPXPARAM_MIP_Tolerances_MIPGap                   0
Generic callback                                 0x60
1 of 1 MIP starts provided solutions.
MIP start 'm1' defined initial solution with objective 1992.7807.
Tried aggregator 1 time.
Reduced MIP has 250501 rows, 250501 columns, and 750500 nonzeros.
Reduced MIP has 500 binaries, 0 generals, 0 SOSs, and 0 indicators.
Presolve time = 0.25 sec. (239.04 ticks)
Probing time = 0.04 sec. (31.29 ticks)
Tried aggregator 1 time.
Reduced MIP has 250501 rows, 250501 columns, and 750500 nonzeros.
Reduced MIP has 500 binaries, 0 generals, 0 SOSs, and 0 indicators.
Presolve time = 0.25 sec. (234.98 ticks)
Probing time = 0.03 sec. (31.29 ticks)
MIP emphasis: balance optimality and feasibility.
MIP search method: dynamic search.
Parallel mode: none, using 1 thread.
Root relaxation solution time = 0.08 sec. (96.49 ticks)

        Nodes                                         Cuts/
   Node  Left     Objective  IInf  Best Integer    Best Bound    ItCnt     Gap

*     0+    0                         1992.7807     2716.0000            36.29%
      0     0     2010.7929    22     1992.7807     2716.0000        0   36.29%
      0     2     2010.7929    22     1992.7807     2010.7929        0    0.90%
Elapsed time = 263.74 sec. (199204.72 ticks, tree = 0.01 MB, solutions = 1)
      1     3     2007.7273    39     1992.7807     2010.7924    15002    0.90%
      2     4     2008.4189    47     1992.7807     2008.4188    25010    0.78%
      3     5     2008.1940    49     1992.7807     2008.4187    26629    0.78%
      4     6     2008.0773    51     1992.7807     2008.1933    38414    0.77%
      5     7     2006.6568    27     1992.7807     2008.1933    52343    0.77%
      6     8     2006.3059    14     1992.7807     2008.1933    62036    0.77%
      7     9     2006.1566    15     1992.7807     2008.1933    66424    0.77%
      8    10     2006.1963    13     1992.7807     2008.1933    68473    0.77%
      9    11     2005.9573     7     1992.7807     2008.1933    75463    0.77%
*    10    10      integral     0     2005.5414     2008.1933    77656    0.13%
Elapsed time = 730.81 sec. (507171.27 ticks, tree = 0.82 MB, solutions = 2)
     11    11     2005.6612    11     2005.5414     2008.1933    78747    0.13%
     13     9        cutoff           2005.5414     2008.1933    78898    0.13%
     14    10     2008.1343    50     2005.5414     2008.1341    79394    0.13%
     15    11     2008.0165    47     2005.5414     2008.1341    80384    0.13%
     16    12     2007.9231    43     2005.5414     2008.1341    81018    0.13%
     17    13     2007.8103    42     2005.5414     2008.1341    81729    0.13%
     18    14     2006.8865    28     2005.5414     2008.1341    86182    0.13%
     19    15     2006.7418    28     2005.5414     2008.1341    87665    0.13%
     20    14        cutoff           2005.5414     2008.1341    89429    0.13%
     21    15     2006.6678    28     2005.5414     2008.1341    90238    0.13%
Elapsed time = 883.10 sec. (610172.46 ticks, tree = 3.00 MB, solutions = 2)
     22    16     2005.5727    22     2005.5414     2008.1341    93681    0.13%
     25    15     2007.6892    58     2005.5414     2008.0770    99321    0.13%
     26    16     2007.1671    58     2005.5414     2008.0770   107342    0.13%
     27    17     2007.0115    57     2005.5414     2008.0770   109221    0.13%
     28    18     2006.9226    58     2005.5414     2008.0770   111397    0.13%
     29    19     2006.8331    55     2005.5414     2008.0770   124278    0.13%
     30    20     2006.8175    56     2005.5414     2008.0770   124851    0.13%
     31    21     2006.5102    56     2005.5414     2008.0770   145223    0.13%
     32    22     2006.4243    55     2005.5414     2008.0770   148949    0.13%
     33    23     2006.2911    58     2005.5414     2008.0770   165837    0.13%
Elapsed time = 1365.55 sec. (936670.36 ticks, tree = 3.80 MB, solutions = 2)
     34    24     2006.0709    55     2005.5414     2008.0770   169120    0.13%
     35    25     2005.9800    54     2005.5414     2008.0770   170202    0.13%
     36    24        cutoff           2005.5414     2008.0770   172071    0.13%
     37    25     2005.7252    41     2005.5414     2008.0770   174481    0.13%
     38    26     2005.6472    45     2005.5414     2008.0770   175251    0.13%
     39    27     2005.6391    43     2005.5414     2008.0770   175490    0.13%
     40    28     2005.5508    42     2005.5414     2008.0770   176230    0.13%
     43    27     2007.6268    43     2005.5414     2008.0723   178564    0.13%
     44    28     2007.2866    32     2005.5414     2008.0723   180399    0.13%
     45    29     2007.2545    29     2005.5414     2008.0723   180974    0.13%
Elapsed time = 1533.92 sec. (1038416.87 ticks, tree = 4.34 MB, solutions = 2)
     46    30     2007.1820    24     2005.5414     2008.0723   181397    0.13%
     47    31     2007.1375    28     2005.5414     2008.0723   181912    0.13%
     48    32     2007.0741    27     2005.5414     2008.0723   182321    0.13%
     49    33     2006.7904    35     2005.5414     2008.0723   183992    0.13%
     50    34     2006.6392    34     2005.5414     2008.0723   185148    0.13%
     51    35     2006.5918    35     2005.5414     2008.0723   185565    0.13%
     52    36     2006.5403    36     2005.5414     2008.0723   185874    0.13%
     53    37     2006.4743    32     2005.5414     2008.0723   186214    0.13%
     54    38     2006.3660    35     2005.5414     2008.0723   187008    0.13%
     55    39     2006.3094    39     2005.5414     2008.0723   187471    0.13%
Elapsed time = 1634.58 sec. (1088847.12 ticks, tree = 5.24 MB, solutions = 2)
     56    40     2006.2125    45     2005.5414     2008.0723   188425    0.13%
     57    41     2006.0590    45     2005.5414     2008.0723   188925    0.13%
     58    42     2005.9521    42     2005.5414     2008.0723   190178    0.13%
     59    43     2005.9167    41     2005.5414     2008.0723   190602    0.13%
     60    44     2005.7697    47     2005.5414     2008.0723   191330    0.13%
     61    45     2005.6889    42     2005.5414     2008.0723   191690    0.13%
     62    46     2005.6397    43     2005.5414     2008.0723   191917    0.13%
     63    47     2005.5616    40     2005.5414     2008.0723   192656    0.13%
     65    45        cutoff           2005.5414     2008.0723   192819    0.13%
     66    46     2007.7615    50     2005.5414     2008.0165   195137    0.12%
Elapsed time = 1749.49 sec. (1151051.80 ticks, tree = 5.87 MB, solutions = 2)
     67    47     2007.4713    47     2005.5414     2008.0165   196682    0.12%
     68    48     2007.2509    49     2005.5414     2008.0165   198452    0.12%
     69    49     2007.1750    52     2005.5414     2008.0165   199248    0.12%
     70    50     2006.9133    50     2005.5414     2008.0165   201330    0.12%
     71    51     2006.8342    50     2005.5414     2008.0165   201889    0.12%
     72    52     2006.7834    48     2005.5414     2008.0165   202777    0.12%
     73    53     2006.6652    41     2005.5414     2008.0165   204130    0.12%
     74    54     2006.5159    56     2005.5414     2008.0165   205553    0.12%
     75    55     2006.2185    49     2005.5414     2008.0165   207899    0.12%
     76    56     2006.1034    56     2005.5414     2008.0165   208493    0.12%
Elapsed time = 1951.62 sec. (1272891.18 ticks, tree = 6.77 MB, solutions = 2)
     77    57     2005.9199    48     2005.5414     2008.0165   209320    0.12%
     78    58     2005.8117    57     2005.5414     2008.0165   210493    0.12%
     79    57        cutoff           2005.5414     2008.0165   211380    0.12%
     80    58     2005.6437    42     2005.5414     2008.0165   212839    0.12%
     81    57        cutoff           2005.5414     2008.0165   213231    0.12%
     83    57     2006.8279    17     2005.5414     2007.8103   219960    0.11%
     84    58     2006.7950    10     2005.5414     2007.8103   220068    0.11%
     85    59     2006.7313     4     2005.5414     2007.8103   220390    0.11%
     86    60     2006.6180     8     2005.5414     2007.8103   222040    0.11%
     87    61     2006.5590     2     2005.5414     2007.8103   222824    0.11%
Elapsed time = 2101.95 sec. (1363786.09 ticks, tree = 12.95 MB, solutions = 2)
     88    62     2006.4781     6     2005.5414     2007.8103   223261    0.11%
     89    63     2006.3367     4     2005.5414     2007.8103   223877    0.11%
*    90+   45                         2006.2606     2007.8103             0.08%
     90    47     2006.3322     2     2006.2606     2007.8103   223909    0.08%
     92    45        cutoff           2006.2606     2007.8103   224039    0.08%
     93    46     2007.4942    32     2006.2606     2007.8101   225616    0.08%
     94    47     2007.3434    34     2006.2606     2007.8101   226274    0.08%
     95    48     2007.2216    32     2006.2606     2007.8101   226632    0.08%
     96    49     2007.1573    27     2006.2606     2007.8101   227094    0.08%
     97    50     2006.7805    32     2006.2606     2007.8101   228227    0.08%
     98    51     2006.6470    42     2006.2606     2007.8101   229084    0.08%
Elapsed time = 2201.94 sec. (1426394.23 ticks, tree = 19.70 MB, solutions = 3)
     99    52     2006.5955    40     2006.2606     2007.8101   229366    0.08%
    100    53     2006.4739    43     2006.2606     2007.8101   229718    0.08%
    101    54     2006.3553    39     2006.2606     2007.8101   230077    0.08%
    102    53        cutoff           2006.2606     2007.8101   230214    0.08%
    104    53     2007.5764    38     2006.2606     2007.7612   232204    0.07%
    105    54     2007.4654    37     2006.2606     2007.7612   233110    0.07%
    106    55     2007.2191    46     2006.2606     2007.7612   234125    0.07%
    107    56     2007.1071    48     2006.2606     2007.7612   234579    0.07%
    108    57     2006.4438    31     2006.2606     2007.7612   237319    0.07%
    109    58     2006.3212    26     2006.2606     2007.7612   237903    0.07%
Elapsed time = 2324.42 sec. (1496993.04 ticks, tree = 20.33 MB, solutions = 3)
    112    57     2007.6360    35     2006.2606     2007.7268   239406    0.07%
    113    58     2006.5314    24     2006.2606     2007.7268   243030    0.07%
    117    62     2006.3180    23     2006.2606     2007.7268   243617    0.07%
    121    62     2007.6456    42     2006.2606     2007.7253   244423    0.07%
    123    64     2007.4664    40     2006.2606     2007.7253   245378    0.07%
    124    65     2007.3745    42     2006.2606     2007.7253   246004    0.07%
    126    67     2007.0693    37     2006.2606     2007.7253   247398    0.07%
    128    69     2006.9893    35     2006.2606     2007.7253   247999    0.07%
    129    70     2006.6241    10     2006.2606     2007.7253   249389    0.07%
*   130    52      integral     0     2006.5357     2007.7253   249983    0.06%
Elapsed time = 2491.82 sec. (1586771.88 ticks, tree = 14.14 MB, solutions = 4)
    132    50        cutoff           2006.5357     2007.6891   252375    0.06%
    133    51     2007.0792    37     2006.5357     2007.6453   255995    0.06%
    135    53     2006.6919    38     2006.5357     2007.6453   257712    0.06%
    136    52        cutoff           2006.5357     2007.6453   258255    0.06%
    138    52     2007.2595    26     2006.5357     2007.6359   260213    0.05%
    139    53     2007.1225    33     2006.5357     2007.6359   261117    0.05%
    140    54     2006.9670    29     2006.5357     2007.6359   262302    0.05%
    142    56     2006.7134    16     2006.5357     2007.6359   263261    0.05%
    143    57     2006.5816    29     2006.5357     2007.6359   264055    0.05%
    148    58     2007.3592    35     2006.5357     2007.6262   265530    0.05%
Elapsed time = 2701.53 sec. (1721750.78 ticks, tree = 18.41 MB, solutions = 4)
    150    60     2007.0772    37     2006.5357     2007.6262   266518    0.05%
    151    61     2006.9211    37     2006.5357     2007.6262   267222    0.05%
    153    63     2006.7465    17     2006.5357     2007.6262   268288    0.05%
    154    64     2006.5450    21     2006.5357     2007.6262   269333    0.05%
    157    61        cutoff           2006.5357     2007.5763   272261    0.05%
    158    62     2007.4902    15     2006.5357     2007.5485   272714    0.05%
    159    63     2007.3268    10     2006.5357     2007.5485   274640    0.05%
*   160+   30                         2007.0207     2007.5485             0.03%
    160    32     2007.0419     8     2007.0207     2007.5485   275955    0.03%
    163    29        cutoff           2007.0207     2007.4942   277533    0.02%
    164    28        cutoff           2007.0207     2007.4872   279210    0.02%
Elapsed time = 2932.81 sec. (1876880.04 ticks, tree = 6.25 MB, solutions = 5)
    165    29     2007.0492    26     2007.0207     2007.4711   281421    0.02%
    168    26        cutoff           2007.0207     2007.4664   283021    0.02%
    169    27     2007.0800    20     2007.0207     2007.4651   284314    0.02%
    171    25        cutoff           2007.0207     2007.4651   284419    0.02%
    172    26     2007.3076     2     2007.0207     2007.3735   285522    0.02%
*   173     6      integral     0     2007.2983     2007.3735   285716    0.00%
    175     4        cutoff           2007.2983     2007.3572   285817    0.00%

User cuts applied:  12

Root node processing (before b&c):
  Real time             =  263.75 sec. (199219.09 ticks)
Sequential b&c:
  Real time             = 2763.55 sec. (1750781.68 ticks)
                          ------------
Total (root+branch&cut) = 3027.30 sec. (1950000.76 ticks)
@Parameters: 
is_S_cut                                true
is_add_all_yinF                         true
is_start_value                          true
is_usercut                              true
is_visualization                        false
uc_only_rootnode                        false

data                                    Qi
fn                                      data/Qi/instance_500_500.csv
mode                                    ZLP
solver                                  cplex

p                                       10
r                                       2

EPS                                     1.0e-06
EPS_vio                                 1.0e-04
beta                                    0.10
gap                                     0.00
nodelimit                               Inf
timelimit                               7200.00


@PrintInfos
ItCnt: 286032
Current gap: 0.00 %
Termination Status: OPTIMAL
Primal Status: FEASIBLE_POINT
Solve Time: 3027.30 sec
Objective Value: 2007.298279
Number of Nodes:    180

CutInfo: [phase] num / time (sec) 
ZLP             [phase1]     0 / 0.00 [rLC]     4 / 6.24 [rUC]     2 / 2.41 [sLC]     0 / 5.47 [sUC]    10 / 356.56 
OldSubmodular   [phase1]     0 / 0.00 [rLC]     0 / 0.00 [rUC]     0 / 0.00 [sLC]     0 / 0.00 [sUC]     0 / 0.00 
NewSubmodular   [phase1]     0 / 0.00 [rLC]     0 / 0.00 [rUC]     0 / 0.00 [sLC]     0 / 0.00 [sUC]     0 / 0.00 
PMP             [phase1]     0 / 0.00 [rLC]     5 / 3.85 [rUC]     2 / 1.63 [sLC]     5 / 4.92 [sUC]   272 / 269.81 
Separation Round: [phase1] 0  [rLC] 5  [rUC] 2  [sLC] 5  [sUC] 272
Root Best Bound 2008.418828
Root Best Integer: 1992.780748
Best Bound: 2007.298279
Best Integer: 2007.298279

